; benchmark generated from python API
(set-info :status unknown)
(declare-fun x4 () Real)
(declare-fun x3 () Real)
(declare-fun bool.b17 () Bool)
(declare-fun bool.b18 () Bool)
(declare-fun bool.b19 () Bool)
(declare-fun bool.b20 () Bool)
(declare-fun bool.b23 () Bool)
(declare-fun bool.b22 () Bool)
(declare-fun bool.b24 () Bool)
(declare-fun bool.b21 () Bool)
(assert
 (forall ((?lambda Real) )(let ((?x30503 (+ x3 (* (/ (- 1.0) 20.0) ?lambda))))
 (let ((?x18789 (* 1.0 ?x30503)))
 (let ((?x1579 (+ ?x18789 (* (/ 1.0 400.0) (+ x4 (* 20.0 ?lambda))))))
 (let (($x19860 (<= ?x1579 20.0)))
 (let (($x2544 (not bool.b17)))
 (let ((?x13125 (+ ?x18789 (* (/ 3.0 20.0) (+ x4 (* 20.0 ?lambda))))))
 (let (($x25358 (<= ?x13125 723.0)))
 (let (($x38309 (not $x25358)))
 (let (($x34458 (<= ?x18789 0.0)))
 (let (($x16256 (not (and $x34458 $x38309))))
 (let (($x39099 (not (and bool.b17 $x16256))))
 (let (($x19486 (and $x39099 (not (and $x2544 (not (and $x19860 (not (<= ?x1579 (/ 241.0 20.0))))))))))
 (let (($x18623 (not bool.b18)))
 (let (($x7246 (not (and bool.b18 $x16256))))
 (let (($x7038 (not bool.b19)))
 (let (($x9415 (and (not (and bool.b19 $x16256)) (not (and $x7038 (not (and $x7246 (not (and $x18623 (not $x19486))))))))))
 (let (($x2474 (not $x9415)))
 (let (($x15599 (not bool.b20)))
 (let (($x10741 (not (and (not (and bool.b20 $x16256)) (not (and $x15599 $x2474))))))
 (let (($x14241 (not bool.b23)))
 (let (($x17398 (not (and (not (and bool.b23 $x16256)) (not (and $x14241 $x10741))))))
 (let (($x13297 (not (and (<= (* (- 1.0) (+ x4 (* 20.0 ?lambda))) (- 4910.0)) $x19860))))
 (let (($x20494 (not $x34458)))
 (let (($x6237 (not (and $x34458 $x25358))))
 (let (($x32692 (not (and $x39099 (not (and $x2544 (not (and $x6237 (not (and $x20494 $x13297))))))))))
 (let ((?x4365 (* 20.0 ?lambda)))
 (let ((?x21212 (+ x4 ?x4365)))
 (let ((?x26295 (- 1.0)))
 (let ((?x12008 (* ?x26295 ?x21212)))
 (let (($x24411 (<= ?x12008 (- 4910.0))))
 (let (($x3155 (<= (+ (* ?x26295 ?x30503) (* (/ ?x26295 40.0) ?x21212)) (/ (- 623.0) 4.0))))
 (let ((?x9353 (* ?x26295 ?x30503)))
 (let (($x26687 (<= ?x9353 (- 30.0))))
 (let (($x12461 (not (<= ?x18789 33.0))))
 (let (($x4838 (<= ?x18789 40.0)))
 (let (($x19 (and (<= (+ ?x18789 (* (/ 1.0 60.0) ?x21212)) (/ 400.0 3.0)) (<= (+ ?x9353 (* (/ ?x26295 60.0) ?x21212)) (/ (- 731.0) 6.0)))))
 (let (($x5395 (not $x4838)))
 (let (($x11857 (and $x5395 (not $x19))))
 (let (($x7283 (not $x11857)))
 (let (($x13979 (<= ?x18789 45.0)))
 (let (($x7392 (and $x13979 (not (and $x7283 (not (and $x4838 (not (and $x12461 (and $x26687 $x3155))))))))))
 (let (($x9359 (and (not $x13979) (not (<= (+ ?x9353 (* (/ ?x26295 20.0) ?x21212)) (/ (- 581.0) 2.0))))))
 (let (($x12356 (not $x9359)))
 (let (($x1603 (not (and $x12356 (not $x7392)))))
 (let (($x7044 (not $x24411)))
 (let (($x9462 (and bool.b24 (not (and (not (and $x7044 $x1603)) (not (and $x24411 (not $x19860))))))))
 (let (($x2133 (not (and $x5395 (<= (+ ?x18789 (* (/ 3.0 40.0) ?x21212)) 359.0)))))
 (let (($x13818 (<= ?x13125 1200.0)))
 (let (($x14842 (and $x4838 $x13818)))
 (let (($x2033 (not (<= (+ ?x18789 (* (/ 3.0 40.0) ?x21212)) (/ 743.0 2.0)))))
 (let ((?x39616 (+ ?x18789 (* (/ 3.0 40.0) ?x21212))))
 (let (($x10847 (<= ?x39616 359.0)))
 (let (($x14084 (not $x10847)))
 (let (($x31019 (<= ?x39616 610.0)))
 (let (($x8200 (not (<= ?x39616 (/ 703.0 2.0)))))
 (let (($x6027 (and $x8200 (and $x31019 (and (not (and $x14084 (not (and $x2033 $x14842)))) $x2133)))))
 (let (($x16433 (not $x6027)))
 (let (($x22529 (<= (+ ?x18789 (* (/ 1.0 15.0) ?x21212)) (/ 964.0 3.0))))
 (let (($x5669 (not $x22529)))
 (let (($x10044 (not (and (<= (+ ?x18789 (* (/ 1.0 40.0) ?x21212)) 133.0) (not $x14842)))))
 (let (($x3691 (and $x4838 (not (<= (+ ?x18789 (* (/ 1.0 40.0) ?x21212)) (/ 823.0 6.0))))))
 (let (($x31857 (and (not (<= (+ ?x18789 (* (/ 1.0 40.0) ?x21212)) 133.0)) (not $x3691))))
 (let (($x25957 (and (<= (+ ?x18789 (* (/ 1.0 40.0) ?x21212)) (/ 650.0 3.0)) (and (not $x31857) $x10044))))
 (let (($x382 (and (not (<= (+ ?x18789 (* (/ 1.0 40.0) ?x21212)) (/ 261.0 2.0))) $x25957)))
 (let (($x6909 (not (and $x22529 (not $x382)))))
 (let (($x5500 (<= ?x12008 (- 4100.0))))
 (let (($x19976 (<= ?x18789 20.0)))
 (let (($x11899 (not $x19976)))
 (let (($x6943 (not (and $x22529 (not (<= (+ ?x18789 (* (/ 1.0 20.0) ?x21212)) 241.0))))))
 (let (($x9316 (not (and $x19976 (and (not (and $x13818 $x38309)) $x6943)))))
 (let (($x11339 (and $x9316 (not (and $x11899 (not (and $x5500 (and $x6909 (not (and $x5669 $x16433))))))))))
 (let (($x12779 (not bool.b24)))
 (let (($x10991 (and $x6237 (not (and $x20494 (not (and (not (and $x12779 (not $x11339))) (not $x9462))))))))
 (let (($x14107 (<= ?x12008 (- 4500.0))))
 (let (($x17319 (and (<= (+ ?x18789 (* (/ ?x26295 20.0) ?x21212)) (- 205.0)) (not (<= (+ ?x18789 (* (/ ?x26295 20.0) ?x21212)) (- 209.0))))))
 (let (($x18119 (not (<= ?x9353 (- 20.0)))))
 (let ((?x5455 (+ ?x18789 (* (/ ?x26295 80.0) ?x21212))))
 (let (($x6207 (<= ?x5455 (/ (- 161.0) 4.0))))
 (let (($x15194 (and (<= ?x5455 (/ (- 145.0) 4.0)) (and (not $x26687) (not (and $x18119 (not $x17319)))))))
 (let (($x33634 (and (not (and (not $x6207) (not $x15194))) (not (and $x6207 (not (and $x18119 $x17319)))))))
 (let (($x20988 (and (not (and (not (<= ?x18789 30.0)) (not $x17319))) (not (and (not $x26687) (not $x17319))))))
 (let (($x6782 (and (not (and $x34458 (and $x22529 (not $x20988)))) (not (and $x20494 (not $x33634))))))
 (let (($x15611 (not $x14107)))
 (let (($x20896 (not (and $x15611 (not $x6782)))))
 (let (($x9347 (and (not (and $x2544 $x16256)) (not (and bool.b17 (not (and $x20896 (not (and $x14107 (not $x10991))))))))))
 (let (($x26588 (and (not $x13818) (not (and $x12356 (not (and $x13979 (not (and $x12461 $x7283)))))))))
 (let (($x29883 (and (not $x26588) (not (and $x13818 (not (and $x12356 (not (and $x13979 $x11857)))))))))
 (let (($x28660 (not (and $x31019 (not (and $x2133 (not (and $x14084 (not (and $x2033 $x29883))))))))))
 (let (($x15927 (not (and $x7044 (not (and $x8200 (and (not (and (not $x31019) $x1603)) $x28660)))))))
 (let (($x28932 (not (and $x6909 (not (and $x5669 (not (and (not (and $x24411 $x16433)) $x15927))))))))
 (let (($x16051 (not (and (not (and $x14107 (not (and $x9316 (not (and $x11899 $x28932)))))) $x20896))))
 (let (($x20115 (and (not (and bool.b18 (not (and $x39099 (not (and $x2544 $x16051)))))) (not (and $x18623 (not $x9347))))))
 (let (($x28448 (and (not (and $x7038 (not $x20115))) (not (and bool.b19 (not (and $x7246 (not (and $x18623 $x32692)))))))))
 (let (($x29468 (and $x14241 (not (and (not (and $x15599 (not $x28448))) (not (and bool.b20 $x2474)))))))
 (let (($x22588 (not bool.b22)))
 (let (($x18927 (and (not (and $x22588 (not (and (not $x29468) (not (and bool.b23 $x10741)))))) (not (and bool.b22 $x17398)))))
 (let (($x22366 (not bool.b21)))
 (let (($x8913 (and bool.b21 (and (not (and bool.b22 $x16256)) (not (and $x22588 $x17398))))))
 (let (($x12990 (exists ((?lambdaprime Real) )(! (let ((?x4365 (* 20.0 ?lambdaprime)))
 (let ((?x21212 (+ x4 ?x4365)))
 (let ((?x26295 (- 1.0)))
 (let ((?x12008 (* ?x26295 ?x21212)))
 (let (($x24411 (<= ?x12008 (- 4910.0))))
 (let (($x7044 (not $x24411)))
 (let (($x7539 (not (<= (* 1.0 (+ x3 (* (/ ?x26295 20.0) ?lambdaprime))) 30.0))))
 (let (($x11892 (and (not (and bool.b17 (not (and (not (<= ?x12008 (- 4100.0))) $x7539)))) (not (and bool.b18 (not (and $x7539 (not (<= ?x12008 (- 4500.0))))))))))
 (and (and (<= 0.0 ?lambdaprime) (<= ?lambdaprime ?lambda)) (not (and $x11892 (not (and bool.b19 (not (and $x7539 $x7044))))))))))))))) :qid k!25))
 ))
 (or (or $x12990 (< ?lambda 0.0)) (and (not $x8913) (not (and $x22366 $x18927))))))))))))))))))))))))))))))))))))))))))))))))))))))))))))))))))))))))))))))))))))))))))))))))))))))))
 )
(check-sat)
